WARNING: for repeatability, setting FPU to use double precision
============================[ Problem Statistics ]=============================
|                                                                             |
|  Number of variables:            50                                         |
|  Number of clauses:             218                                         |
|  Parse time:                   0.00 s                                       |
|                                                                             |
============================[ Search Statistics ]==============================
| Conflicts |          ORIGINAL         |          LEARNT          | Progress |
|           |    Vars  Clauses Literals |    Limit  Clauses Lit/Cl |          |
===============================================================================
===============================================================================
restarts              : 1
conflicts             : 31             (21970 /sec)
decisions             : 42             (0.00 % random) (29766 /sec)
propagations          : 556            (394047 /sec)
conflict literals     : 156            (12.85 % deleted)
Memory used           : 20.00 MB
CPU time              : 0.001411 s

SATISFIABLE
